33D32945 STP File, STP Format Version 1.0

SECTION Comments
Name "shell_n13_d2_s47"
Problem "Euclidean Steiner Tree Problem"
Remark "Generated with STPGenerator. 2 dimensions."
END

SECTION Graph
Nodes 13
END

SECTION Coordinates
DD 0 -0.6458452512 -0.7634683435
DD 1 0.9400086754 -0.3411505390
DD 2 -0.3547389811 0.9349653765
DD 3 -0.7533994309 0.6575631510
DD 4 0.9522063197 -0.3054556020
DD 5 0.1477569902 -0.9890236963
DD 6 0.0711889987 -0.9974628447
DD 7 0.8194338369 0.5731737843
DD 8 -0.2318519608 -0.9727510824
DD 9 0.9796589013 -0.2006699708
DD 10 0.9321999813 0.3619436348
DD 11 0.8590438415 0.5119020203
DD 12 -0.8526235632 0.5225256543
END
